c This file was generated by genrmf.
c The parameters are: a: 4 b: 8 c1: 0 c2: 500 cost: 100 demand: 1000 seed: 3141592
p max     128        496
n       1        270
n     128       -270
a       1      28          0        439         99
a       1       2          0       8000         48
a       1       5          0       8000         74
a       2      25          0        194         69
a       2       3          0       8000         14
a       2       1          0       8000         58
a       2       6          0       8000         87
a       3      29          0        273         59
a       3       4          0       8000         29
a       3       2          0       8000         57
a       3       7          0       8000          3
a       4      23          0        352         34
a       4       3          0       8000         76
a       4       8          0       8000         44
a       5      26          0        322         77
a       5       6          0       8000         99
a       5       9          0       8000         41
a       5       1          0       8000         75
a       6      22          0        128         11
a       6       7          0       8000         81
a       6       5          0       8000         95
a       6      10          0       8000         25
a       6       2          0       8000         62
a       7      31          0        470         88
a       7       8          0       8000         13
a       7       6          0       8000         40
a       7      11          0       8000         80
a       7       3          0       8000         45
a       8      32          0        271         16
a       8       7          0       8000         19
a       8      12          0       8000          7
a       8       4          0       8000         11
a       9      19          0        193         31
a       9      10          0       8000         64
a       9      13          0       8000         93
a       9       5          0       8000         74
a      10      27          0        366         66
a      10      11          0       8000         61
a      10       9          0       8000         80
a      10      14          0       8000         58
a      10       6          0       8000         72
a      11      24          0        228         86
a      11      12          0       8000         72
a      11      10          0       8000         38
a      11      15          0       8000         54
a      11       7          0       8000         14
a      12      17          0        484         83
a      12      11          0       8000         31
a      12      16          0       8000         67
a      12       8          0       8000         23
a      13      18          0        228         38
a      13      14          0       8000         56
a      13       9          0       8000         59
a      14      21          0        110          9
a      14      15          0       8000         88
a      14      13          0       8000         24
a      14      10          0       8000         49
a      15      30          0        177         20
a      15      16          0       8000         14
a      15      14          0       8000          3
a      15      11          0       8000         28
a      16      20          0        307         61
a      16      15          0       8000         72
a      16      12          0       8000         76
a      17      41          0        166         22
a      17      18          0       8000         46
a      17      21          0       8000         90
a      18      38          0        106          0
a      18      19          0       8000          4
a      18      17          0       8000         72
a      18      22          0       8000         29
a      19      42          0         86         86
a      19      20          0       8000         89
a      19      18          0       8000         39
a      19      23          0       8000         85
a      20      40          0        415         51
a      20      19          0       8000         90
a      20      24          0       8000         60
a      21      46          0         30         50
a      21      22          0       8000         38
a      21      25          0       8000         31
a      21      17          0       8000         48
a      22      33          0        192         12
a      22      23          0       8000         44
a      22      21          0       8000         36
a      22      26          0       8000         93
a      22      18          0       8000         92
a      23      43          0         75         17
a      23      24          0       8000         38
a      23      22          0       8000         26
a      23      27          0       8000         55
a      23      19          0       8000         78
a      24      44          0        186         16
a      24      23          0       8000         23
a      24      28          0       8000         65
a      24      20          0       8000         76
a      25      37          0        365         65
a      25      26          0       8000         95
a      25      29          0       8000         48
a      25      21          0       8000         95
a      26      47          0         51         61
a      26      27          0       8000         20
a      26      25          0       8000          3
a      26      30          0       8000         53
a      26      22          0       8000         41
a      27      36          0         49         39
a      27      28          0       8000         76
a      27      26          0       8000         90
a      27      31          0       8000         82
a      27      23          0       8000         64
a      28      34          0         89         95
a      28      27          0       8000         43
a      28      32          0       8000         67
a      28      24          0       8000         56
a      29      39          0        251         23
a      29      30          0       8000         31
a      29      25          0       8000         45
a      30      48          0        346         91
a      30      31          0       8000         31
a      30      29          0       8000          2
a      30      26          0       8000         29
a      31      35          0        227         84
a      31      32          0       8000         63
a      31      30          0       8000         47
a      31      27          0       8000         42
a      32      45          0         40         23
a      32      31          0       8000          4
a      32      28          0       8000         92
a      33      64          0        221         17
a      33      34          0       8000        100
a      33      37          0       8000         64
a      34      58          0        350         80
a      34      35          0       8000         82
a      34      33          0       8000          4
a      34      38          0       8000         99
a      35      57          0        263        100
a      35      36          0       8000         58
a      35      34          0       8000          7
a      35      39          0       8000         64
a      36      52          0         76         88
a      36      35          0       8000         33
a      36      40          0       8000         85
a      37      50          0        361         70
a      37      38          0       8000          3
a      37      41          0       8000         20
a      37      33          0       8000         45
a      38      56          0        398         64
a      38      39          0       8000         49
a      38      37          0       8000         43
a      38      42          0       8000         75
a      38      34          0       8000         45
a      39      61          0          4         82
a      39      40          0       8000         12
a      39      38          0       8000         89
a      39      43          0       8000         54
a      39      35          0       8000         28
a      40      59          0        216         25
a      40      39          0       8000         86
a      40      44          0       8000         11
a      40      36          0       8000         34
a      41      53          0        461         22
a      41      42          0       8000         33
a      41      45          0       8000         23
a      41      37          0       8000         64
a      42      49          0        400         82
a      42      43          0       8000         69
a      42      41          0       8000         22
a      42      46          0       8000         78
a      42      38          0       8000         65
a      43      54          0        445         38
a      43      44          0       8000         14
a      43      42          0       8000         78
a      43      47          0       8000         86
a      43      39          0       8000          6
a      44      62          0        276         10
a      44      43          0       8000         34
a      44      48          0       8000         44
a      44      40          0       8000         57
a      45      51          0        430         95
a      45      46          0       8000        100
a      45      41          0       8000         77
a      46      60          0        164         26
a      46      47          0       8000         72
a      46      45          0       8000         13
a      46      42          0       8000         23
a      47      63          0        390         58
a      47      48          0       8000         48
a      47      46          0       8000         87
a      47      43          0       8000         50
a      48      55          0        305         24
a      48      47          0       8000         90
a      48      44          0       8000         14
a      49      66          0        326         89
a      49      50          0       8000         30
a      49      53          0       8000         37
a      50      80          0        162         98
a      50      51          0       8000         52
a      50      49          0       8000          3
a      50      54          0       8000         84
a      51      74          0        496          1
a      51      52          0       8000        100
a      51      50          0       8000          7
a      51      55          0       8000         88
a      52      71          0        297         61
a      52      51          0       8000         60
a      52      56          0       8000         61
a      53      68          0        159         34
a      53      54          0       8000         77
a      53      57          0       8000         18
a      53      49          0       8000         65
a      54      76          0        280         92
a      54      55          0       8000         55
a      54      53          0       8000         40
a      54      58          0       8000         57
a      54      50          0       8000         74
a      55      72          0         22         81
a      55      56          0       8000         40
a      55      54          0       8000         90
a      55      59          0       8000         58
a      55      51          0       8000         33
a      56      73          0         95         41
a      56      55          0       8000         80
a      56      60          0       8000          9
a      56      52          0       8000         19
a      57      77          0        405          9
a      57      58          0       8000         48
a      57      61          0       8000         90
a      57      53          0       8000         34
a      58      75          0         76         46
a      58      59          0       8000         17
a      58      57          0       8000         66
a      58      62          0       8000         92
a      58      54          0       8000         10
a      59      70          0        424         72
a      59      60          0       8000         30
a      59      58          0       8000          8
a      59      63          0       8000          5
a      59      55          0       8000         77
a      60      67          0        141         31
a      60      59          0       8000          2
a      60      64          0       8000         58
a      60      56          0       8000         57
a      61      65          0        432         40
a      61      62          0       8000         33
a      61      57          0       8000         81
a      62      79          0         85         87
a      62      63          0       8000          1
a      62      61          0       8000         64
a      62      58          0       8000         59
a      63      78          0        242         70
a      63      64          0       8000         65
a      63      62          0       8000         76
a      63      59          0       8000         75
a      64      69          0        361         14
a      64      63          0       8000         69
a      64      60          0       8000         50
a      65      92          0        469         79
a      65      66          0       8000         88
a      65      69          0       8000         88
a      66      96          0        273         48
a      66      67          0       8000         56
a      66      65          0       8000         93
a      66      70          0       8000         67
a      67      91          0        170         23
a      67      68          0       8000         98
a      67      66          0       8000          8
a      67      71          0       8000         50
a      68      95          0        465         33
a      68      67          0       8000         45
a      68      72          0       8000         89
a      69      93          0         36         39
a      69      70          0       8000         73
a      69      73          0       8000         64
a      69      65          0       8000         28
a      70      84          0        232         67
a      70      71          0       8000         39
a      70      69          0       8000         77
a      70      74          0       8000         50
a      70      66          0       8000          4
a      71      89          0        393         55
a      71      72          0       8000          9
a      71      70          0       8000         15
a      71      75          0       8000         71
a      71      67          0       8000          2
a      72      87          0        324         65
a      72      71          0       8000         68
a      72      76          0       8000         80
a      72      68          0       8000         25
a      73      94          0        173         40
a      73      74          0       8000         10
a      73      77          0       8000          1
a      73      69          0       8000         69
a      74      85          0        474         16
a      74      75          0       8000         66
a      74      73          0       8000         35
a      74      78          0       8000         52
a      74      70          0       8000         37
a      75      83          0        318          0
a      75      76          0       8000         67
a      75      74          0       8000         97
a      75      79          0       8000          9
a      75      71          0       8000         44
a      76      90          0        435         79
a      76      75          0       8000         80
a      76      80          0       8000         89
a      76      72          0       8000         24
a      77      81          0        165         14
a      77      78          0       8000         43
a      77      73          0       8000         31
a      78      86          0        486         40
a      78      79          0       8000          8
a      78      77          0       8000         68
a      78      74          0       8000         45
a      79      88          0         56         35
a      79      80          0       8000         71
a      79      78          0       8000          8
a      79      75          0       8000         74
a      80      82          0        287         98
a      80      79          0       8000         49
a      80      76          0       8000          4
a      81     108          0        374         55
a      81      82          0       8000         93
a      81      85          0       8000         96
a      82      99          0         57         88
a      82      83          0       8000         91
a      82      81          0       8000         79
a      82      86          0       8000          8
a      83     112          0        119         43
a      83      84          0       8000         23
a      83      82          0       8000         73
a      83      87          0       8000         67
a      84     104          0          3         68
a      84      83          0       8000         82
a      84      88          0       8000         28
a      85     111          0        330         87
a      85      86          0       8000         35
a      85      89          0       8000         15
a      85      81          0       8000         96
a      86     109          0        261         79
a      86      87          0       8000         49
a      86      85          0       8000        100
a      86      90          0       8000         91
a      86      82          0       8000         81
a      87     102          0          1         24
a      87      88          0       8000         49
a      87      86          0       8000         34
a      87      91          0       8000         27
a      87      83          0       8000        100
a      88      97          0        412         44
a      88      87          0       8000         87
a      88      92          0       8000         44
a      88      84          0       8000         66
a      89     101          0        258         24
a      89      90          0       8000         53
a      89      93          0       8000         68
a      89      85          0       8000         78
a      90      98          0        241         46
a      90      91          0       8000          9
a      90      89          0       8000         97
a      90      94          0       8000         54
a      90      86          0       8000         18
a      91     106          0         10         66
a      91      92          0       8000         71
a      91      90          0       8000         93
a      91      95          0       8000         85
a      91      87          0       8000         19
a      92     100          0        303         69
a      92      91          0       8000         20
a      92      96          0       8000         55
a      92      88          0       8000         60
a      93     105          0         86         33
a      93      94          0       8000         46
a      93      89          0       8000         76
a      94     103          0        197         75
a      94      95          0       8000        100
a      94      93          0       8000         74
a      94      90          0       8000         68
a      95     110          0        328         81
a      95      96          0       8000         29
a      95      94          0       8000         10
a      95      91          0       8000         14
a      96     107          0        396         40
a      96      95          0       8000         37
a      96      92          0       8000         90
a      97     126          0        407         60
a      97      98          0       8000         46
a      97     101          0       8000         34
a      98     127          0        488         91
a      98      99          0       8000         19
a      98      97          0       8000         14
a      98     102          0       8000         20
a      99     124          0        368         59
a      99     100          0       8000          5
a      99      98          0       8000         68
a      99     103          0       8000         57
a     100     119          0         61         69
a     100      99          0       8000         40
a     100     104          0       8000         91
a     101     113          0        229         13
a     101     102          0       8000         30
a     101     105          0       8000         82
a     101      97          0       8000         15
a     102     117          0        261         64
a     102     103          0       8000         46
a     102     101          0       8000         62
a     102     106          0       8000         31
a     102      98          0       8000         83
a     103     115          0         44         17
a     103     104          0       8000         80
a     103     102          0       8000         79
a     103     107          0       8000         92
a     103      99          0       8000         92
a     104     118          0        306         11
a     104     103          0       8000         17
a     104     108          0       8000         45
a     104     100          0       8000         73
a     105     128          0        236         31
a     105     106          0       8000         17
a     105     109          0       8000         55
a     105     101          0       8000          8
a     106     116          0        445         66
a     106     107          0       8000         69
a     106     105          0       8000         34
a     106     110          0       8000         91
a     106     102          0       8000         84
a     107     120          0        164         31
a     107     108          0       8000         97
a     107     106          0       8000         61
a     107     111          0       8000         42
a     107     103          0       8000         59
a     108     121          0        468        100
a     108     107          0       8000          5
a     108     112          0       8000         94
a     108     104          0       8000         66
a     109     125          0         88         20
a     109     110          0       8000         41
a     109     105          0       8000         43
a     110     122          0        463         37
a     110     111          0       8000         55
a     110     109          0       8000         11
a     110     106          0       8000         80
a     111     123          0          5         29
a     111     112          0       8000         75
a     111     110          0       8000          5
a     111     107          0       8000         87
a     112     114          0        240         52
a     112     111          0       8000         42
a     112     108          0       8000          3
a     113     114          0       8000         30
a     113     117          0       8000         69
a     114     115          0       8000         22
a     114     113          0       8000         90
a     114     118          0       8000         88
a     115     116          0       8000         20
a     115     114          0       8000         69
a     115     119          0       8000         97
a     116     115          0       8000          8
a     116     120          0       8000         31
a     117     118          0       8000         54
a     117     121          0       8000         28
a     117     113          0       8000         62
a     118     119          0       8000          2
a     118     117          0       8000         54
a     118     122          0       8000         77
a     118     114          0       8000         40
a     119     120          0       8000         15
a     119     118          0       8000         65
a     119     123          0       8000         27
a     119     115          0       8000         39
a     120     119          0       8000         71
a     120     124          0       8000         57
a     120     116          0       8000          7
a     121     122          0       8000         77
a     121     125          0       8000         90
a     121     117          0       8000         39
a     122     123          0       8000        100
a     122     121          0       8000         62
a     122     126          0       8000         57
a     122     118          0       8000         92
a     123     124          0       8000        100
a     123     122          0       8000         86
a     123     127          0       8000         42
a     123     119          0       8000         37
a     124     123          0       8000         25
a     124     128          0       8000         72
a     124     120          0       8000         35
a     125     126          0       8000         54
a     125     121          0       8000          5
a     126     127          0       8000         30
a     126     125          0       8000         17
a     126     122          0       8000         54
a     127     128          0       8000         11
a     127     126          0       8000          6
a     127     123          0       8000         30
a     128     127          0       8000         41
a     128     124          0       8000         40
